NAME : gaussian_missing_edges_with_de_seg1_seg2_seg3_random75.4647.tour
COMMENT : Length = 4647
COMMENT : Found by LKH [Keld Helsgaun] Fri Jul 12 16:34:23 2024
TYPE : TOUR
DIMENSION : 75
TOUR_SECTION
1
25
60
40
29
48
68
26
55
35
70
54
46
69
2
41
13
53
5
8
36
18
22
30
67
16
58
6
34
12
32
7
57
49
17
10
65
42
27
19
37
66
47
15
3
59
31
74
20
64
38
71
11
75
50
61
24
39
52
23
28
51
44
62
14
73
21
33
9
63
72
45
56
4
43
-1
EOF
